 &control
    calculation     = 'nscf'
    prefix          = 'pb'
    pseudo_dir      = './'
    outdir          = './temp/'
 /
 &system
    ibrav           = 2
    celldm(1)       = 9.27
    nat             = 1
    ntyp            = 1
    ecutwfc         = 60
    occupations     = 'smearing'
    smearing        = 'mp'
    degauss         = 0.025
 /
 &electrons
    diagonalization = 'david'
    mixing_beta     = 0.7
    conv_thr        = 1.0d-10
 /
ATOMIC_SPECIES
 Pb 207.2   pb_s.UPF
ATOMIC_POSITIONS crystal
Pb        0.000000000   0.000000000   0.000000000
K_POINTS crystal
27
  0.000000000000  0.000000000000  0.000000000000  3.70370370e-02
  0.000000000000  0.000000000000  0.333333333333  3.70370370e-02
  0.000000000000  0.000000000000  0.666666666667  3.70370370e-02
  0.000000000000  0.333333333333  0.000000000000  3.70370370e-02
  0.000000000000  0.333333333333  0.333333333333  3.70370370e-02
  0.000000000000  0.333333333333  0.666666666667  3.70370370e-02
  0.000000000000  0.666666666667  0.000000000000  3.70370370e-02
  0.000000000000  0.666666666667  0.333333333333  3.70370370e-02
  0.000000000000  0.666666666667  0.666666666667  3.70370370e-02
  0.333333333333  0.000000000000  0.000000000000  3.70370370e-02
  0.333333333333  0.000000000000  0.333333333333  3.70370370e-02
  0.333333333333  0.000000000000  0.666666666667  3.70370370e-02
  0.333333333333  0.333333333333  0.000000000000  3.70370370e-02
  0.333333333333  0.333333333333  0.333333333333  3.70370370e-02
  0.333333333333  0.333333333333  0.666666666667  3.70370370e-02
  0.333333333333  0.666666666667  0.000000000000  3.70370370e-02
  0.333333333333  0.666666666667  0.333333333333  3.70370370e-02
  0.333333333333  0.666666666667  0.666666666667  3.70370370e-02
  0.666666666667  0.000000000000  0.000000000000  3.70370370e-02
  0.666666666667  0.000000000000  0.333333333333  3.70370370e-02
  0.666666666667  0.000000000000  0.666666666667  3.70370370e-02
  0.666666666667  0.333333333333  0.000000000000  3.70370370e-02
  0.666666666667  0.333333333333  0.333333333333  3.70370370e-02
  0.666666666667  0.333333333333  0.666666666667  3.70370370e-02
  0.666666666667  0.666666666667  0.000000000000  3.70370370e-02
  0.666666666667  0.666666666667  0.333333333333  3.70370370e-02
  0.666666666667  0.666666666667  0.666666666667  3.70370370e-02
