--
&inputph
  reduce_io= .true.
  prefix   = 'pb'
  fildvscf = 'dvscf'
  ldisp    = .true
  outdir   = './temp/'
  fildyn   = 'dyn_dir/pb.dyn'
  nq1      = 3
  nq2      = 3
  nq3      = 3
  tr2_ph   =  1.0d-22
 /
