&input
  fildyn = 'dyn_dir/pb.dyn'
  zasr   = 'crystal'
  flfrc  = 'pb.fc'
/

