 &control
    calculation     = 'bands'
    prefix          = 'bn'
    restart_mode    = 'from_scratch'
    pseudo_dir      = '.'
    outdir          = 'temp/'
    verbosity       = 'high'
    disk_io         = 'nowf'
 /
 &system
    ibrav     = 2
    celldm(1) = 6.83
    nat       = 2
    ntyp      = 2
    ecutwfc   = 70.0
    nbnd = 12
 /
 &electrons
    diago_full_acc  = .true.
    diagonalization = 'david'
    mixing_beta     = 0.7
    diago_david_ndim = 2
    conv_thr        = 1.0d-10
 /
ATOMIC_SPECIES
 B  10.811   B.dojo.sr.ONCVv0.4.lda.standard.upf
 N  14.0067  N.dojo.sr.ONCVv0.4.lda.standard.upf
ATOMIC_POSITIONS crystal
 B  0.125   0.125   0.125
 N -0.125  -0.125  -0.125
 K_POINTS crystal
         199
        0.0000000000    0.0000000000    0.0000000000    1.0
        0.0073529412    0.0073529412    0.0000000000    1.0
        0.0147058824    0.0147058824    0.0000000000    1.0
        0.0220588235    0.0220588235    0.0000000000    1.0
        0.0294117647    0.0294117647    0.0000000000    1.0
        0.0367647059    0.0367647059    0.0000000000    1.0
        0.0441176471    0.0441176471    0.0000000000    1.0
        0.0514705882    0.0514705882    0.0000000000    1.0
        0.0588235294    0.0588235294    0.0000000000    1.0
        0.0661764706    0.0661764706    0.0000000000    1.0
        0.0735294118    0.0735294118    0.0000000000    1.0
        0.0808823529    0.0808823529    0.0000000000    1.0
        0.0882352941    0.0882352941    0.0000000000    1.0
        0.0955882353    0.0955882353    0.0000000000    1.0
        0.1029411765    0.1029411765    0.0000000000    1.0
        0.1102941176    0.1102941176    0.0000000000    1.0
        0.1176470588    0.1176470588    0.0000000000    1.0
        0.1250000000    0.1250000000    0.0000000000    1.0
        0.1323529412    0.1323529412    0.0000000000    1.0
        0.1397058824    0.1397058824    0.0000000000    1.0
        0.1470588235    0.1470588235    0.0000000000    1.0
        0.1544117647    0.1544117647    0.0000000000    1.0
        0.1617647059    0.1617647059    0.0000000000    1.0
        0.1691176471    0.1691176471    0.0000000000    1.0
        0.1764705882    0.1764705882    0.0000000000    1.0
        0.1838235294    0.1838235294    0.0000000000    1.0
        0.1911764706    0.1911764706    0.0000000000    1.0
        0.1985294118    0.1985294118    0.0000000000    1.0
        0.2058823529    0.2058823529    0.0000000000    1.0
        0.2132352941    0.2132352941    0.0000000000    1.0
        0.2205882353    0.2205882353    0.0000000000    1.0
        0.2279411765    0.2279411765    0.0000000000    1.0
        0.2352941176    0.2352941176    0.0000000000    1.0
        0.2426470588    0.2426470588    0.0000000000    1.0
        0.2500000000    0.2500000000    0.0000000000    1.0
        0.2573529412    0.2573529412    0.0000000000    1.0
        0.2647058824    0.2647058824    0.0000000000    1.0
        0.2720588235    0.2720588235    0.0000000000    1.0
        0.2794117647    0.2794117647    0.0000000000    1.0
        0.2867647059    0.2867647059    0.0000000000    1.0
        0.2941176471    0.2941176471    0.0000000000    1.0
        0.3014705882    0.3014705882    0.0000000000    1.0
        0.3088235294    0.3088235294    0.0000000000    1.0
        0.3161764706    0.3161764706    0.0000000000    1.0
        0.3235294118    0.3235294118    0.0000000000    1.0
        0.3308823529    0.3308823529    0.0000000000    1.0
        0.3382352941    0.3382352941    0.0000000000    1.0
        0.3455882353    0.3455882353    0.0000000000    1.0
        0.3529411765    0.3529411765    0.0000000000    1.0
        0.3602941176    0.3602941176    0.0000000000    1.0
        0.3676470588    0.3676470588    0.0000000000    1.0
        0.3750000000    0.3750000000    0.0000000000    1.0
        0.3823529412    0.3823529412    0.0000000000    1.0
        0.3897058824    0.3897058824    0.0000000000    1.0
        0.3970588235    0.3970588235    0.0000000000    1.0
        0.4044117647    0.4044117647    0.0000000000    1.0
        0.4117647059    0.4117647059    0.0000000000    1.0
        0.4191176471    0.4191176471    0.0000000000    1.0
        0.4264705882    0.4264705882    0.0000000000    1.0
        0.4338235294    0.4338235294    0.0000000000    1.0
        0.4411764706    0.4411764706    0.0000000000    1.0
        0.4485294118    0.4485294118    0.0000000000    1.0
        0.4558823529    0.4558823529    0.0000000000    1.0
        0.4632352941    0.4632352941    0.0000000000    1.0
        0.4705882353    0.4705882353    0.0000000000    1.0
        0.4779411765    0.4779411765    0.0000000000    1.0
        0.4852941176    0.4852941176    0.0000000000    1.0
        0.4926470588    0.4926470588    0.0000000000    1.0
        0.5000000000    0.5000000000    0.0000000000    1.0
        0.5073529412    0.5000000000    0.0073529412    1.0
        0.5147058824    0.5000000000    0.0147058824    1.0
        0.5220588235    0.5000000000    0.0220588235    1.0
        0.5294117647    0.5000000000    0.0294117647    1.0
        0.5367647059    0.5000000000    0.0367647059    1.0
        0.5441176471    0.5000000000    0.0441176471    1.0
        0.5514705882    0.5000000000    0.0514705882    1.0
        0.5588235294    0.5000000000    0.0588235294    1.0
        0.5661764706    0.5000000000    0.0661764706    1.0
        0.5735294118    0.5000000000    0.0735294118    1.0
        0.5808823529    0.5000000000    0.0808823529    1.0
        0.5882352941    0.5000000000    0.0882352941    1.0
        0.5955882353    0.5000000000    0.0955882353    1.0
        0.6029411765    0.5000000000    0.1029411765    1.0
        0.6102941176    0.5000000000    0.1102941176    1.0
        0.6176470588    0.5000000000    0.1176470588    1.0
        0.6250000000    0.5000000000    0.1250000000    1.0
        0.6323529412    0.5000000000    0.1323529412    1.0
        0.6397058824    0.5000000000    0.1397058824    1.0
        0.6470588235    0.5000000000    0.1470588235    1.0
        0.6544117647    0.5000000000    0.1544117647    1.0
        0.6617647059    0.5000000000    0.1617647059    1.0
        0.6691176471    0.5000000000    0.1691176471    1.0
        0.6764705882    0.5000000000    0.1764705882    1.0
        0.6838235294    0.5000000000    0.1838235294    1.0
        0.6911764706    0.5000000000    0.1911764706    1.0
        0.6985294118    0.5000000000    0.1985294118    1.0
        0.7058823529    0.5000000000    0.2058823529    1.0
        0.7132352941    0.5000000000    0.2132352941    1.0
        0.7205882353    0.5000000000    0.2205882353    1.0
        0.7279411765    0.5000000000    0.2279411765    1.0
        0.7352941176    0.5000000000    0.2352941176    1.0
        0.7426470588    0.5000000000    0.2426470588    1.0
        0.7500000000    0.5000000000    0.2500000000    1.0
        0.7500000000    0.4947916667    0.2552083333    1.0
        0.7500000000    0.4895833333    0.2604166667    1.0
        0.7500000000    0.4843750000    0.2656250000    1.0
        0.7500000000    0.4791666667    0.2708333333    1.0
        0.7500000000    0.4739583333    0.2760416667    1.0
        0.7500000000    0.4687500000    0.2812500000    1.0
        0.7500000000    0.4635416667    0.2864583333    1.0
        0.7500000000    0.4583333333    0.2916666667    1.0
        0.7500000000    0.4531250000    0.2968750000    1.0
        0.7500000000    0.4479166667    0.3020833333    1.0
        0.7500000000    0.4427083333    0.3072916667    1.0
        0.7500000000    0.4375000000    0.3125000000    1.0
        0.7500000000    0.4322916667    0.3177083333    1.0
        0.7500000000    0.4270833333    0.3229166667    1.0
        0.7500000000    0.4218750000    0.3281250000    1.0
        0.7500000000    0.4166666667    0.3333333333    1.0
        0.7500000000    0.4114583333    0.3385416667    1.0
        0.7500000000    0.4062500000    0.3437500000    1.0
        0.7500000000    0.4010416667    0.3489583333    1.0
        0.7500000000    0.3958333333    0.3541666667    1.0
        0.7500000000    0.3906250000    0.3593750000    1.0
        0.7500000000    0.3854166667    0.3645833333    1.0
        0.7500000000    0.3802083333    0.3697916667    1.0
        0.7500000000    0.3750000000    0.3750000000    1.0
        0.7395833333    0.3697916667    0.3697916667    1.0
        0.7291666667    0.3645833333    0.3645833333    1.0
        0.7187500000    0.3593750000    0.3593750000    1.0
        0.7083333333    0.3541666667    0.3541666667    1.0
        0.6979166667    0.3489583333    0.3489583333    1.0
        0.6875000000    0.3437500000    0.3437500000    1.0
        0.6770833333    0.3385416667    0.3385416667    1.0
        0.6666666667    0.3333333333    0.3333333333    1.0
        0.6562500000    0.3281250000    0.3281250000    1.0
        0.6458333333    0.3229166667    0.3229166667    1.0
        0.6354166667    0.3177083333    0.3177083333    1.0
        0.6250000000    0.3125000000    0.3125000000    1.0
        0.6145833333    0.3072916667    0.3072916667    1.0
        0.6041666667    0.3020833333    0.3020833333    1.0
        0.5937500000    0.2968750000    0.2968750000    1.0
        0.5833333333    0.2916666667    0.2916666667    1.0
        0.5729166667    0.2864583333    0.2864583333    1.0
        0.5625000000    0.2812500000    0.2812500000    1.0
        0.5520833333    0.2760416667    0.2760416667    1.0
        0.5416666667    0.2708333333    0.2708333333    1.0
        0.5312500000    0.2656250000    0.2656250000    1.0
        0.5208333333    0.2604166667    0.2604166667    1.0
        0.5104166667    0.2552083333    0.2552083333    1.0
        0.5000000000    0.2500000000    0.2500000000    1.0
        0.4895833333    0.2447916667    0.2447916667    1.0
        0.4791666667    0.2395833333    0.2395833333    1.0
        0.4687500000    0.2343750000    0.2343750000    1.0
        0.4583333333    0.2291666667    0.2291666667    1.0
        0.4479166667    0.2239583333    0.2239583333    1.0
        0.4375000000    0.2187500000    0.2187500000    1.0
        0.4270833333    0.2135416667    0.2135416667    1.0
        0.4166666667    0.2083333333    0.2083333333    1.0
        0.4062500000    0.2031250000    0.2031250000    1.0
        0.3958333333    0.1979166667    0.1979166667    1.0
        0.3854166667    0.1927083333    0.1927083333    1.0
        0.3750000000    0.1875000000    0.1875000000    1.0
        0.3645833333    0.1822916667    0.1822916667    1.0
        0.3541666667    0.1770833333    0.1770833333    1.0
        0.3437500000    0.1718750000    0.1718750000    1.0
        0.3333333333    0.1666666667    0.1666666667    1.0
        0.3229166667    0.1614583333    0.1614583333    1.0
        0.3125000000    0.1562500000    0.1562500000    1.0
        0.3020833333    0.1510416667    0.1510416667    1.0
        0.2916666667    0.1458333333    0.1458333333    1.0
        0.2812500000    0.1406250000    0.1406250000    1.0
        0.2708333333    0.1354166667    0.1354166667    1.0
        0.2604166667    0.1302083333    0.1302083333    1.0
        0.2500000000    0.1250000000    0.1250000000    1.0
        0.2395833333    0.1197916667    0.1197916667    1.0
        0.2291666667    0.1145833333    0.1145833333    1.0
        0.2187500000    0.1093750000    0.1093750000    1.0
        0.2083333333    0.1041666667    0.1041666667    1.0
        0.1979166667    0.0989583333    0.0989583333    1.0
        0.1875000000    0.0937500000    0.0937500000    1.0
        0.1770833333    0.0885416667    0.0885416667    1.0
        0.1666666667    0.0833333333    0.0833333333    1.0
        0.1562500000    0.0781250000    0.0781250000    1.0
        0.1458333333    0.0729166667    0.0729166667    1.0
        0.1354166667    0.0677083333    0.0677083333    1.0
        0.1250000000    0.0625000000    0.0625000000    1.0
        0.1145833333    0.0572916667    0.0572916667    1.0
        0.1041666667    0.0520833333    0.0520833333    1.0
        0.0937500000    0.0468750000    0.0468750000    1.0
        0.0833333333    0.0416666667    0.0416666667    1.0
        0.0729166667    0.0364583333    0.0364583333    1.0
        0.0625000000    0.0312500000    0.0312500000    1.0
        0.0520833333    0.0260416667    0.0260416667    1.0
        0.0416666667    0.0208333333    0.0208333333    1.0
        0.0312500000    0.0156250000    0.0156250000    1.0
        0.0208333333    0.0104166667    0.0104166667    1.0
        0.0104166667    0.0052083333    0.0052083333    1.0
        0.0000000000    0.0000000000    0.0000000000    1.0
