--
&inputph
  prefix   = 'bn'
  reduce_io = .true.
  epsil    = .true.
  outdir   = './temp/'
  fildyn   = 'dyn_dir/bn.dyn'
  ldisp    = .true.
  fildvscf = 'dvscf'
  nq1 = 2
  nq2 = 2
  nq3 = 2
  tr2_ph   =  1.0d-25
 /
