&input
  fildyn = 'dyn_dir/bn.dyn'
  zasr   = 'crystal'
  flfrc  = 'bn.fc'
/

