 &control
    calculation     = 'scf'
    prefix          = 'bn'
    restart_mode    = 'from_scratch'
    pseudo_dir      = '.'
    outdir          = 'temp/'
    tprnfor         = .true.
    tstress         = .true.
 /
 &system
    ibrav     = 2
    celldm(1) = 6.83
    nat       = 2
    ntyp      = 2
    ecutwfc   = 70.0
 /
 &electrons
    diagonalization = 'david'
    mixing_beta     = 0.7
    conv_thr        = 1.0d-15
 /
ATOMIC_SPECIES
 B  10.811   B.dojo.sr.ONCVv0.4.lda.standard.upf
 N  14.0067  N.dojo.sr.ONCVv0.4.lda.standard.upf
ATOMIC_POSITIONS crystal
 B  0.125   0.125   0.125
 N -0.125  -0.125  -0.125
K_POINTS automatic
 12 12 12 0 0 0

